4 
5  22 44 
6  09 29 48 
7  02 17 31 47 
8  02 17 32 47 
9  02 17 31 46 
10  01 16 31 46 
11  01 16 31 46 
12  01 16 31 46 
13  01 16 32 47 
14  02 17 32 47 
15  02 18 33 48 
16  03 18 33 48 
17  03 18 33 48 
18  03 18 33 48 
19  03 18 33 48 
20  03 18 33 49 
21  03 18 33 48 
22  03 18 35 49 
23  04 28 
0 
